
;this file is automatically generated: Mon Feb 10 17:02:04 CST 2020

;declarations generated

(declare-fun oclExcludes ( Int Int) Bool)
(declare-fun obj_fb191c53_5952_427d_8b7e_f0ef49c8cb4d ( Int) Int)
(declare-fun Cardinality ( Int) Int)
(declare-fun type_ed469bef_aa15_4671_91dd_da106b32e85b_Class5 ( Int) Bool)
(declare-fun type_ed469bef_aa15_4671_91dd_da106b32e85b_Class13 ( Int) Bool)
(declare-fun type_ed469bef_aa15_4671_91dd_da106b32e85b_Class11 ( Int) Bool)
(declare-fun oclSelect ( Int Bool) Int)
(declare-fun Enum0 ( Int) Int)
(declare-fun Enum1 ( Int) Int)
(declare-fun class5_Class5BoolAttr1 ( Int) Bool)
(declare-fun class5_Class5BoolAttr0 ( Int) Bool)
(declare-fun container_ ( Int) Int)
(declare-fun class5_Class5IntAttr3 ( Int) Int)
(declare-fun oclIncludes ( Int Int) Bool)
(declare-fun class5_Class5IntAttr2 ( Int) Int)
(declare-fun ObjAt ( Int Int) Int)

;formula(s) generated
(assert (! (forall ((v Int)) (=> (and (and ( type_ed469bef_aa15_4671_91dd_da106b32e85b_Class5 v )  ( type_ed469bef_aa15_4671_91dd_da106b32e85b_Class11 v ) ) ( type_ed469bef_aa15_4671_91dd_da106b32e85b_Class13 v ) ) (not ( class5_Class5BoolAttr1 ( obj_fb191c53_5952_427d_8b7e_f0ef49c8cb4d v )  )  ))):named l0))
(assert (! (or (forall ((v Int)) (=> (and (and ( type_ed469bef_aa15_4671_91dd_da106b32e85b_Class5 v )  ( type_ed469bef_aa15_4671_91dd_da106b32e85b_Class11 v ) ) ( type_ed469bef_aa15_4671_91dd_da106b32e85b_Class13 v ) ) ( class5_Class5BoolAttr0 ( obj_fb191c53_5952_427d_8b7e_f0ef49c8cb4d v )  ) )) (forall ((v Int)) (=> (and (and ( type_ed469bef_aa15_4671_91dd_da106b32e85b_Class5 v )  ( type_ed469bef_aa15_4671_91dd_da106b32e85b_Class11 v ) ) ( type_ed469bef_aa15_4671_91dd_da106b32e85b_Class13 v ) ) ( class5_Class5BoolAttr1 ( obj_fb191c53_5952_427d_8b7e_f0ef49c8cb4d v )  ) ))):named l1))
(assert (! (or (forall ((v Int)) (=> (and (and ( type_ed469bef_aa15_4671_91dd_da106b32e85b_Class5 v )  ( type_ed469bef_aa15_4671_91dd_da106b32e85b_Class11 v ) ) ( type_ed469bef_aa15_4671_91dd_da106b32e85b_Class13 v ) ) (or ( class5_Class5BoolAttr1 ( obj_fb191c53_5952_427d_8b7e_f0ef49c8cb4d v )  )  (or (forall ((c5_2 Int)(c5_1 Int)) (=> (and (and (and ( type_ed469bef_aa15_4671_91dd_da106b32e85b_Class5 c5_1 )  ( type_ed469bef_aa15_4671_91dd_da106b32e85b_Class11 c5_1 ) ) ( type_ed469bef_aa15_4671_91dd_da106b32e85b_Class13 c5_1 ) ) (and (and ( type_ed469bef_aa15_4671_91dd_da106b32e85b_Class5 c5_2 )  ( type_ed469bef_aa15_4671_91dd_da106b32e85b_Class11 c5_2 ) ) ( type_ed469bef_aa15_4671_91dd_da106b32e85b_Class13 c5_2 ) )) (< ( class5_Class5IntAttr2 ( obj_fb191c53_5952_427d_8b7e_f0ef49c8cb4d c5_1 )  )  ( class5_Class5IntAttr3 ( obj_fb191c53_5952_427d_8b7e_f0ef49c8cb4d c5_2 )  ) ))) (forall ((v Int)) (=> (and (and ( type_ed469bef_aa15_4671_91dd_da106b32e85b_Class5 v )  ( type_ed469bef_aa15_4671_91dd_da106b32e85b_Class11 v ) ) ( type_ed469bef_aa15_4671_91dd_da106b32e85b_Class13 v ) ) (< ( class5_Class5IntAttr2 ( obj_fb191c53_5952_427d_8b7e_f0ef49c8cb4d v )  )  18))))))) (forall ((v Int)) (=> (and (and ( type_ed469bef_aa15_4671_91dd_da106b32e85b_Class5 v )  ( type_ed469bef_aa15_4671_91dd_da106b32e85b_Class11 v ) ) ( type_ed469bef_aa15_4671_91dd_da106b32e85b_Class13 v ) ) ( class5_Class5BoolAttr0 ( obj_fb191c53_5952_427d_8b7e_f0ef49c8cb4d v )  ) ))):named l2))
(assert (exists ((o Int)) (and (and ( type_ed469bef_aa15_4671_91dd_da106b32e85b_Class5 ( obj_fb191c53_5952_427d_8b7e_f0ef49c8cb4d o )  )  ( type_ed469bef_aa15_4671_91dd_da106b32e85b_Class11 ( obj_fb191c53_5952_427d_8b7e_f0ef49c8cb4d o )  ) ) ( type_ed469bef_aa15_4671_91dd_da106b32e85b_Class13 ( obj_fb191c53_5952_427d_8b7e_f0ef49c8cb4d o )  ) )))

 ;end of formula 